; Benchmark for LTL-sketching problem
(set-logic QF_UF)
(set-info :status unknown)
(declare-fun z_0_1 () Bool)
(declare-fun z_1_0 () Bool)
(declare-fun z_0_0 () Bool)
(declare-fun z_0_2 () Bool)
(declare-fun z_1_1 () Bool)
(declare-fun z_1_2 () Bool)
(declare-fun z_0_4 () Bool)
(declare-fun z_1_3 () Bool)
(declare-fun z_0_3 () Bool)
(declare-fun z_0_5 () Bool)
(declare-fun z_1_4 () Bool)
(declare-fun z_1_5 () Bool)
(declare-fun z_0_7 () Bool)
(declare-fun z_1_6 () Bool)
(declare-fun z_0_6 () Bool)
(declare-fun z_0_8 () Bool)
(declare-fun z_1_7 () Bool)
(declare-fun z_0_9 () Bool)
(declare-fun z_1_8 () Bool)
(declare-fun z_0_10 () Bool)
(declare-fun z_1_9 () Bool)
(declare-fun z_0_11 () Bool)
(declare-fun z_1_10 () Bool)
(declare-fun z_0_12 () Bool)
(declare-fun z_1_11 () Bool)
(declare-fun z_1_12 () Bool)
(declare-fun z_0_14 () Bool)
(declare-fun z_1_13 () Bool)
(declare-fun z_0_13 () Bool)
(declare-fun z_0_15 () Bool)
(declare-fun z_1_14 () Bool)
(declare-fun z_1_15 () Bool)
(declare-fun z_1_16 () Bool)
(declare-fun z_0_16 () Bool)
(declare-fun z_0_18 () Bool)
(declare-fun z_1_17 () Bool)
(declare-fun z_0_17 () Bool)
(declare-fun z_0_19 () Bool)
(declare-fun z_1_18 () Bool)
(declare-fun z_0_20 () Bool)
(declare-fun z_1_19 () Bool)
(declare-fun z_0_21 () Bool)
(declare-fun z_1_20 () Bool)
(declare-fun z_0_22 () Bool)
(declare-fun z_1_21 () Bool)
(declare-fun z_1_22 () Bool)
(declare-fun z_0_24 () Bool)
(declare-fun z_1_23 () Bool)
(declare-fun z_0_23 () Bool)
(declare-fun z_1_24 () Bool)
(declare-fun z_0_26 () Bool)
(declare-fun z_1_25 () Bool)
(declare-fun z_0_25 () Bool)
(declare-fun z_0_27 () Bool)
(declare-fun z_1_26 () Bool)
(declare-fun z_1_27 () Bool)
(declare-fun z_0_29 () Bool)
(declare-fun z_1_28 () Bool)
(declare-fun z_0_28 () Bool)
(declare-fun z_0_30 () Bool)
(declare-fun z_1_29 () Bool)
(declare-fun z_0_31 () Bool)
(declare-fun z_1_30 () Bool)
(declare-fun z_0_32 () Bool)
(declare-fun z_1_31 () Bool)
(declare-fun z_0_33 () Bool)
(declare-fun z_1_32 () Bool)
(declare-fun z_1_33 () Bool)
(declare-fun z_0_35 () Bool)
(declare-fun z_1_34 () Bool)
(declare-fun z_0_34 () Bool)
(declare-fun z_0_36 () Bool)
(declare-fun z_1_35 () Bool)
(declare-fun z_0_37 () Bool)
(declare-fun z_1_36 () Bool)
(declare-fun z_0_38 () Bool)
(declare-fun z_1_37 () Bool)
(declare-fun z_0_39 () Bool)
(declare-fun z_1_38 () Bool)
(declare-fun z_0_40 () Bool)
(declare-fun z_1_39 () Bool)
(declare-fun z_1_40 () Bool)
(declare-fun z_0_42 () Bool)
(declare-fun z_1_41 () Bool)
(declare-fun z_0_41 () Bool)
(declare-fun z_0_43 () Bool)
(declare-fun z_1_42 () Bool)
(declare-fun z_0_44 () Bool)
(declare-fun z_1_43 () Bool)
(declare-fun z_0_45 () Bool)
(declare-fun z_1_44 () Bool)
(declare-fun z_1_45 () Bool)
(declare-fun z_0_47 () Bool)
(declare-fun z_1_46 () Bool)
(declare-fun z_0_46 () Bool)
(declare-fun z_0_48 () Bool)
(declare-fun z_1_47 () Bool)
(declare-fun z_0_49 () Bool)
(declare-fun z_1_48 () Bool)
(declare-fun z_0_50 () Bool)
(declare-fun z_1_49 () Bool)
(declare-fun z_0_51 () Bool)
(declare-fun z_1_50 () Bool)
(declare-fun z_0_52 () Bool)
(declare-fun z_1_51 () Bool)
(declare-fun z_0_53 () Bool)
(declare-fun z_1_52 () Bool)
(declare-fun z_1_53 () Bool)
(declare-fun z_0_55 () Bool)
(declare-fun z_1_54 () Bool)
(declare-fun z_0_54 () Bool)
(declare-fun z_0_56 () Bool)
(declare-fun z_1_55 () Bool)
(declare-fun z_0_57 () Bool)
(declare-fun z_1_56 () Bool)
(declare-fun z_0_58 () Bool)
(declare-fun z_1_57 () Bool)
(declare-fun z_0_59 () Bool)
(declare-fun z_1_58 () Bool)
(declare-fun z_0_60 () Bool)
(declare-fun z_1_59 () Bool)
(declare-fun z_1_60 () Bool)
(declare-fun z_0_62 () Bool)
(declare-fun z_1_61 () Bool)
(declare-fun z_0_61 () Bool)
(declare-fun z_0_63 () Bool)
(declare-fun z_1_62 () Bool)
(declare-fun z_1_63 () Bool)
(declare-fun z_0_65 () Bool)
(declare-fun z_1_64 () Bool)
(declare-fun z_0_64 () Bool)
(declare-fun z_0_66 () Bool)
(declare-fun z_1_65 () Bool)
(declare-fun z_0_67 () Bool)
(declare-fun z_1_66 () Bool)
(declare-fun z_0_68 () Bool)
(declare-fun z_1_67 () Bool)
(declare-fun z_0_69 () Bool)
(declare-fun z_1_68 () Bool)
(declare-fun z_1_69 () Bool)
(declare-fun z_0_71 () Bool)
(declare-fun z_1_70 () Bool)
(declare-fun z_0_70 () Bool)
(declare-fun z_0_72 () Bool)
(declare-fun z_1_71 () Bool)
(declare-fun z_0_73 () Bool)
(declare-fun z_1_72 () Bool)
(declare-fun z_0_74 () Bool)
(declare-fun z_1_73 () Bool)
(declare-fun z_0_75 () Bool)
(declare-fun z_1_74 () Bool)
(declare-fun z_0_76 () Bool)
(declare-fun z_1_75 () Bool)
(declare-fun z_1_76 () Bool)
(declare-fun z_0_78 () Bool)
(declare-fun z_1_77 () Bool)
(declare-fun z_0_77 () Bool)
(declare-fun z_0_79 () Bool)
(declare-fun z_1_78 () Bool)
(declare-fun z_0_80 () Bool)
(declare-fun z_1_79 () Bool)
(declare-fun z_0_81 () Bool)
(declare-fun z_1_80 () Bool)
(declare-fun z_0_82 () Bool)
(declare-fun z_1_81 () Bool)
(declare-fun z_1_82 () Bool)
(declare-fun z_0_84 () Bool)
(declare-fun z_1_83 () Bool)
(declare-fun z_0_83 () Bool)
(declare-fun z_0_85 () Bool)
(declare-fun z_1_84 () Bool)
(declare-fun z_0_86 () Bool)
(declare-fun z_1_85 () Bool)
(declare-fun z_0_87 () Bool)
(declare-fun z_1_86 () Bool)
(declare-fun z_0_88 () Bool)
(declare-fun z_1_87 () Bool)
(declare-fun z_0_89 () Bool)
(declare-fun z_1_88 () Bool)
(declare-fun z_1_89 () Bool)
(declare-fun z_0_91 () Bool)
(declare-fun z_1_90 () Bool)
(declare-fun z_0_90 () Bool)
(declare-fun z_0_92 () Bool)
(declare-fun z_1_91 () Bool)
(declare-fun z_0_93 () Bool)
(declare-fun z_1_92 () Bool)
(declare-fun z_0_94 () Bool)
(declare-fun z_1_93 () Bool)
(declare-fun z_0_95 () Bool)
(declare-fun z_1_94 () Bool)
(declare-fun z_1_95 () Bool)
(declare-fun z_0_97 () Bool)
(declare-fun z_1_96 () Bool)
(declare-fun z_0_96 () Bool)
(declare-fun z_0_98 () Bool)
(declare-fun z_1_97 () Bool)
(declare-fun z_1_98 () Bool)
(declare-fun z_3_0 () Bool)
(declare-fun z_2_0 () Bool)
(declare-fun z_3_1 () Bool)
(declare-fun z_2_1 () Bool)
(declare-fun z_3_2 () Bool)
(declare-fun z_2_2 () Bool)
(declare-fun z_3_3 () Bool)
(declare-fun z_2_3 () Bool)
(declare-fun z_3_4 () Bool)
(declare-fun z_2_4 () Bool)
(declare-fun z_3_5 () Bool)
(declare-fun z_2_5 () Bool)
(declare-fun z_3_6 () Bool)
(declare-fun z_2_6 () Bool)
(declare-fun z_3_7 () Bool)
(declare-fun z_2_7 () Bool)
(declare-fun z_3_8 () Bool)
(declare-fun z_2_8 () Bool)
(declare-fun z_3_9 () Bool)
(declare-fun z_2_9 () Bool)
(declare-fun z_3_10 () Bool)
(declare-fun z_2_10 () Bool)
(declare-fun z_3_11 () Bool)
(declare-fun z_2_11 () Bool)
(declare-fun z_3_12 () Bool)
(declare-fun z_2_12 () Bool)
(declare-fun z_3_13 () Bool)
(declare-fun z_2_13 () Bool)
(declare-fun z_3_14 () Bool)
(declare-fun z_2_14 () Bool)
(declare-fun z_3_15 () Bool)
(declare-fun z_2_15 () Bool)
(declare-fun z_3_16 () Bool)
(declare-fun z_2_16 () Bool)
(declare-fun z_3_17 () Bool)
(declare-fun z_2_17 () Bool)
(declare-fun z_3_18 () Bool)
(declare-fun z_2_18 () Bool)
(declare-fun z_3_19 () Bool)
(declare-fun z_2_19 () Bool)
(declare-fun z_3_20 () Bool)
(declare-fun z_2_20 () Bool)
(declare-fun z_3_21 () Bool)
(declare-fun z_2_21 () Bool)
(declare-fun z_3_22 () Bool)
(declare-fun z_2_22 () Bool)
(declare-fun z_3_23 () Bool)
(declare-fun z_2_23 () Bool)
(declare-fun z_3_24 () Bool)
(declare-fun z_2_24 () Bool)
(declare-fun z_3_25 () Bool)
(declare-fun z_2_25 () Bool)
(declare-fun z_3_26 () Bool)
(declare-fun z_2_26 () Bool)
(declare-fun z_3_27 () Bool)
(declare-fun z_2_27 () Bool)
(declare-fun z_3_28 () Bool)
(declare-fun z_2_28 () Bool)
(declare-fun z_3_29 () Bool)
(declare-fun z_2_29 () Bool)
(declare-fun z_3_30 () Bool)
(declare-fun z_2_30 () Bool)
(declare-fun z_3_31 () Bool)
(declare-fun z_2_31 () Bool)
(declare-fun z_3_32 () Bool)
(declare-fun z_2_32 () Bool)
(declare-fun z_3_33 () Bool)
(declare-fun z_2_33 () Bool)
(declare-fun z_3_34 () Bool)
(declare-fun z_2_34 () Bool)
(declare-fun z_3_35 () Bool)
(declare-fun z_2_35 () Bool)
(declare-fun z_3_36 () Bool)
(declare-fun z_2_36 () Bool)
(declare-fun z_3_37 () Bool)
(declare-fun z_2_37 () Bool)
(declare-fun z_3_38 () Bool)
(declare-fun z_2_38 () Bool)
(declare-fun z_3_39 () Bool)
(declare-fun z_2_39 () Bool)
(declare-fun z_3_40 () Bool)
(declare-fun z_2_40 () Bool)
(declare-fun z_3_41 () Bool)
(declare-fun z_2_41 () Bool)
(declare-fun z_3_42 () Bool)
(declare-fun z_2_42 () Bool)
(declare-fun z_3_43 () Bool)
(declare-fun z_2_43 () Bool)
(declare-fun z_3_44 () Bool)
(declare-fun z_2_44 () Bool)
(declare-fun z_3_45 () Bool)
(declare-fun z_2_45 () Bool)
(declare-fun z_3_46 () Bool)
(declare-fun z_2_46 () Bool)
(declare-fun z_3_47 () Bool)
(declare-fun z_2_47 () Bool)
(declare-fun z_3_48 () Bool)
(declare-fun z_2_48 () Bool)
(declare-fun z_3_49 () Bool)
(declare-fun z_2_49 () Bool)
(declare-fun z_3_50 () Bool)
(declare-fun z_2_50 () Bool)
(declare-fun z_3_51 () Bool)
(declare-fun z_2_51 () Bool)
(declare-fun z_3_52 () Bool)
(declare-fun z_2_52 () Bool)
(declare-fun z_3_53 () Bool)
(declare-fun z_2_53 () Bool)
(declare-fun z_3_54 () Bool)
(declare-fun z_2_54 () Bool)
(declare-fun z_3_55 () Bool)
(declare-fun z_2_55 () Bool)
(declare-fun z_3_56 () Bool)
(declare-fun z_2_56 () Bool)
(declare-fun z_3_57 () Bool)
(declare-fun z_2_57 () Bool)
(declare-fun z_3_58 () Bool)
(declare-fun z_2_58 () Bool)
(declare-fun z_3_59 () Bool)
(declare-fun z_2_59 () Bool)
(declare-fun z_3_60 () Bool)
(declare-fun z_2_60 () Bool)
(declare-fun z_3_61 () Bool)
(declare-fun z_2_61 () Bool)
(declare-fun z_3_62 () Bool)
(declare-fun z_2_62 () Bool)
(declare-fun z_3_63 () Bool)
(declare-fun z_2_63 () Bool)
(declare-fun z_3_64 () Bool)
(declare-fun z_2_64 () Bool)
(declare-fun z_3_65 () Bool)
(declare-fun z_2_65 () Bool)
(declare-fun z_3_66 () Bool)
(declare-fun z_2_66 () Bool)
(declare-fun z_3_67 () Bool)
(declare-fun z_2_67 () Bool)
(declare-fun z_3_68 () Bool)
(declare-fun z_2_68 () Bool)
(declare-fun z_3_69 () Bool)
(declare-fun z_2_69 () Bool)
(declare-fun z_3_70 () Bool)
(declare-fun z_2_70 () Bool)
(declare-fun z_3_71 () Bool)
(declare-fun z_2_71 () Bool)
(declare-fun z_3_72 () Bool)
(declare-fun z_2_72 () Bool)
(declare-fun z_3_73 () Bool)
(declare-fun z_2_73 () Bool)
(declare-fun z_3_74 () Bool)
(declare-fun z_2_74 () Bool)
(declare-fun z_3_75 () Bool)
(declare-fun z_2_75 () Bool)
(declare-fun z_3_76 () Bool)
(declare-fun z_2_76 () Bool)
(declare-fun z_3_77 () Bool)
(declare-fun z_2_77 () Bool)
(declare-fun z_3_78 () Bool)
(declare-fun z_2_78 () Bool)
(declare-fun z_3_79 () Bool)
(declare-fun z_2_79 () Bool)
(declare-fun z_3_80 () Bool)
(declare-fun z_2_80 () Bool)
(declare-fun z_3_81 () Bool)
(declare-fun z_2_81 () Bool)
(declare-fun z_3_82 () Bool)
(declare-fun z_2_82 () Bool)
(declare-fun z_3_83 () Bool)
(declare-fun z_2_83 () Bool)
(declare-fun z_3_84 () Bool)
(declare-fun z_2_84 () Bool)
(declare-fun z_3_85 () Bool)
(declare-fun z_2_85 () Bool)
(declare-fun z_3_86 () Bool)
(declare-fun z_2_86 () Bool)
(declare-fun z_3_87 () Bool)
(declare-fun z_2_87 () Bool)
(declare-fun z_3_88 () Bool)
(declare-fun z_2_88 () Bool)
(declare-fun z_3_89 () Bool)
(declare-fun z_2_89 () Bool)
(declare-fun z_3_90 () Bool)
(declare-fun z_2_90 () Bool)
(declare-fun z_3_91 () Bool)
(declare-fun z_2_91 () Bool)
(declare-fun z_3_92 () Bool)
(declare-fun z_2_92 () Bool)
(declare-fun z_3_93 () Bool)
(declare-fun z_2_93 () Bool)
(declare-fun z_3_94 () Bool)
(declare-fun z_2_94 () Bool)
(declare-fun z_3_95 () Bool)
(declare-fun z_2_95 () Bool)
(declare-fun z_3_96 () Bool)
(declare-fun z_2_96 () Bool)
(declare-fun z_3_97 () Bool)
(declare-fun z_2_97 () Bool)
(declare-fun z_3_98 () Bool)
(declare-fun z_2_98 () Bool)
(assert
 (= z_0_0 (and z_1_0 z_0_1)))
(assert
 (= z_0_1 (and z_1_1 z_0_2)))
(assert
 (= z_0_2 (and z_1_2 z_1_1)))
(assert
 (= z_0_3 (and z_1_3 z_0_4)))
(assert
 (= z_0_4 (and z_1_4 z_0_5)))
(assert
 (= z_0_5 (and z_1_5)))
(assert
 (= z_0_6 (and z_1_6 z_0_7)))
(assert
 (= z_0_7 (and z_1_7 z_0_8)))
(assert
 (= z_0_8 (and z_1_8 z_0_9)))
(assert
 (= z_0_9 (and z_1_9 z_0_10)))
(assert
 (= z_0_10 (and z_1_10 z_0_11)))
(assert
 (= z_0_11 (and z_1_11 z_0_12)))
(assert
 (= z_0_12 (and z_1_12 z_1_10 z_1_11)))
(assert
 (= z_0_13 (and z_1_13 z_0_14)))
(assert
 (= z_0_14 (and z_1_14 z_0_15)))
(assert
 (= z_0_15 (and z_1_15)))
(assert
 (= z_0_16 (and z_1_16 z_0_15)))
(assert
 (= z_0_17 (and z_1_17 z_0_18)))
(assert
 (= z_0_18 (and z_1_18 z_0_19)))
(assert
 (= z_0_19 (and z_1_19 z_0_20)))
(assert
 (= z_0_20 (and z_1_20 z_0_21)))
(assert
 (= z_0_21 (and z_1_21 z_0_22)))
(assert
 (= z_0_22 (and z_1_22 z_1_20 z_1_21)))
(assert
 (= z_0_23 (and z_1_23 z_0_24)))
(assert
 (= z_0_24 (and z_1_24 z_0_12)))
(assert
 (= z_0_25 (and z_1_25 z_0_26)))
(assert
 (= z_0_26 (and z_1_26 z_0_27)))
(assert
 (= z_0_27 (and z_1_27 z_0_24)))
(assert
 (= z_0_28 (and z_1_28 z_0_29)))
(assert
 (= z_0_29 (and z_1_29 z_0_30)))
(assert
 (= z_0_30 (and z_1_30 z_0_31)))
(assert
 (= z_0_31 (and z_1_31 z_0_32)))
(assert
 (= z_0_32 (and z_1_32 z_0_33)))
(assert
 (= z_0_33 (and z_1_33 z_1_30 z_1_31 z_1_32)))
(assert
 (= z_0_34 (and z_1_34 z_0_35)))
(assert
 (= z_0_35 (and z_1_35 z_0_36)))
(assert
 (= z_0_36 (and z_1_36 z_0_37)))
(assert
 (= z_0_37 (and z_1_37 z_0_38)))
(assert
 (= z_0_38 (and z_1_38 z_0_39)))
(assert
 (= z_0_39 (and z_1_39 z_0_40)))
(assert
 (= z_0_40 (and z_1_40 z_1_37 z_1_38 z_1_39)))
(assert
 (= z_0_41 (and z_1_41 z_0_42)))
(assert
 (= z_0_42 (and z_1_42 z_0_43)))
(assert
 (= z_0_43 (and z_1_43 z_0_44)))
(assert
 (= z_0_44 (and z_1_44 z_0_45)))
(assert
 (= z_0_45 (and z_1_45 z_1_43 z_1_44)))
(assert
 (= z_0_46 (and z_1_46 z_0_47)))
(assert
 (= z_0_47 (and z_1_47 z_0_48)))
(assert
 (= z_0_48 (and z_1_48 z_0_49)))
(assert
 (= z_0_49 (and z_1_49 z_0_50)))
(assert
 (= z_0_50 (and z_1_50 z_0_51)))
(assert
 (= z_0_51 (and z_1_51 z_0_52)))
(assert
 (= z_0_52 (and z_1_52 z_0_53)))
(assert
 (= z_0_53 (and z_1_53 z_1_50 z_1_51 z_1_52)))
(assert
 (= z_0_54 (and z_1_54 z_0_55)))
(assert
 (= z_0_55 (and z_1_55 z_0_56)))
(assert
 (= z_0_56 (and z_1_56 z_0_57)))
(assert
 (= z_0_57 (and z_1_57 z_0_58)))
(assert
 (= z_0_58 (and z_1_58 z_0_59)))
(assert
 (= z_0_59 (and z_1_59 z_0_60)))
(assert
 (= z_0_60 (and z_1_60 z_1_57 z_1_58 z_1_59)))
(assert
 (= z_0_61 (and z_1_61 z_0_62)))
(assert
 (= z_0_62 (and z_1_62 z_0_63)))
(assert
 (= z_0_63 (and z_1_63 z_0_37)))
(assert
 (= z_0_64 (and z_1_64 z_0_65)))
(assert
 (= z_0_65 (and z_1_65 z_0_66)))
(assert
 (= z_0_66 (and z_1_66 z_0_67)))
(assert
 (= z_0_67 (and z_1_67 z_0_68)))
(assert
 (= z_0_68 (and z_1_68 z_0_69)))
(assert
 (= z_0_69 (and z_1_69 z_1_68)))
(assert
 (= z_0_70 (and z_1_70 z_0_71)))
(assert
 (= z_0_71 (and z_1_71 z_0_72)))
(assert
 (= z_0_72 (and z_1_72 z_0_73)))
(assert
 (= z_0_73 (and z_1_73 z_0_74)))
(assert
 (= z_0_74 (and z_1_74 z_0_75)))
(assert
 (= z_0_75 (and z_1_75 z_0_76)))
(assert
 (= z_0_76 (and z_1_76 z_1_74 z_1_75)))
(assert
 (= z_0_77 (and z_1_77 z_0_78)))
(assert
 (= z_0_78 (and z_1_78 z_0_79)))
(assert
 (= z_0_79 (and z_1_79 z_0_80)))
(assert
 (= z_0_80 (and z_1_80 z_0_81)))
(assert
 (= z_0_81 (and z_1_81 z_0_82)))
(assert
 (= z_0_82 (and z_1_82 z_1_79 z_1_80 z_1_81)))
(assert
 (= z_0_83 (and z_1_83 z_0_84)))
(assert
 (= z_0_84 (and z_1_84 z_0_85)))
(assert
 (= z_0_85 (and z_1_85 z_0_86)))
(assert
 (= z_0_86 (and z_1_86 z_0_87)))
(assert
 (= z_0_87 (and z_1_87 z_0_88)))
(assert
 (= z_0_88 (and z_1_88 z_0_89)))
(assert
 (= z_0_89 (and z_1_89 z_1_87 z_1_88)))
(assert
 (= z_0_90 (and z_1_90 z_0_91)))
(assert
 (= z_0_91 (and z_1_91 z_0_92)))
(assert
 (= z_0_92 (and z_1_92 z_0_93)))
(assert
 (= z_0_93 (and z_1_93 z_0_94)))
(assert
 (= z_0_94 (and z_1_94 z_0_95)))
(assert
 (= z_0_95 (and z_1_95 z_1_93 z_1_94)))
(assert
 (= z_0_96 (and z_1_96 z_0_97)))
(assert
 (= z_0_97 (and z_1_97 z_0_98)))
(assert
 (= z_0_98 (and z_1_98 z_0_75)))
(assert
 (= z_1_0 (=> z_2_0 z_3_0)))
(assert
 (= z_1_1 (=> z_2_1 z_3_1)))
(assert
 (= z_1_2 (=> z_2_2 z_3_2)))
(assert
 (= z_1_3 (=> z_2_3 z_3_3)))
(assert
 (= z_1_4 (=> z_2_4 z_3_4)))
(assert
 (= z_1_5 (=> z_2_5 z_3_5)))
(assert
 (= z_1_6 (=> z_2_6 z_3_6)))
(assert
 (= z_1_7 (=> z_2_7 z_3_7)))
(assert
 (= z_1_8 (=> z_2_8 z_3_8)))
(assert
 (= z_1_9 (=> z_2_9 z_3_9)))
(assert
 (= z_1_10 (=> z_2_10 z_3_10)))
(assert
 (= z_1_11 (=> z_2_11 z_3_11)))
(assert
 (= z_1_12 (=> z_2_12 z_3_12)))
(assert
 (= z_1_13 (=> z_2_13 z_3_13)))
(assert
 (= z_1_14 (=> z_2_14 z_3_14)))
(assert
 (= z_1_15 (=> z_2_15 z_3_15)))
(assert
 (= z_1_16 (=> z_2_16 z_3_16)))
(assert
 (= z_1_17 (=> z_2_17 z_3_17)))
(assert
 (= z_1_18 (=> z_2_18 z_3_18)))
(assert
 (= z_1_19 (=> z_2_19 z_3_19)))
(assert
 (= z_1_20 (=> z_2_20 z_3_20)))
(assert
 (= z_1_21 (=> z_2_21 z_3_21)))
(assert
 (= z_1_22 (=> z_2_22 z_3_22)))
(assert
 (= z_1_23 (=> z_2_23 z_3_23)))
(assert
 (= z_1_24 (=> z_2_24 z_3_24)))
(assert
 (= z_1_25 (=> z_2_25 z_3_25)))
(assert
 (= z_1_26 (=> z_2_26 z_3_26)))
(assert
 (= z_1_27 (=> z_2_27 z_3_27)))
(assert
 (= z_1_28 (=> z_2_28 z_3_28)))
(assert
 (= z_1_29 (=> z_2_29 z_3_29)))
(assert
 (= z_1_30 (=> z_2_30 z_3_30)))
(assert
 (= z_1_31 (=> z_2_31 z_3_31)))
(assert
 (= z_1_32 (=> z_2_32 z_3_32)))
(assert
 (= z_1_33 (=> z_2_33 z_3_33)))
(assert
 (= z_1_34 (=> z_2_34 z_3_34)))
(assert
 (= z_1_35 (=> z_2_35 z_3_35)))
(assert
 (= z_1_36 (=> z_2_36 z_3_36)))
(assert
 (= z_1_37 (=> z_2_37 z_3_37)))
(assert
 (= z_1_38 (=> z_2_38 z_3_38)))
(assert
 (= z_1_39 (=> z_2_39 z_3_39)))
(assert
 (= z_1_40 (=> z_2_40 z_3_40)))
(assert
 (= z_1_41 (=> z_2_41 z_3_41)))
(assert
 (= z_1_42 (=> z_2_42 z_3_42)))
(assert
 (= z_1_43 (=> z_2_43 z_3_43)))
(assert
 (= z_1_44 (=> z_2_44 z_3_44)))
(assert
 (= z_1_45 (=> z_2_45 z_3_45)))
(assert
 (= z_1_46 (=> z_2_46 z_3_46)))
(assert
 (= z_1_47 (=> z_2_47 z_3_47)))
(assert
 (= z_1_48 (=> z_2_48 z_3_48)))
(assert
 (= z_1_49 (=> z_2_49 z_3_49)))
(assert
 (= z_1_50 (=> z_2_50 z_3_50)))
(assert
 (= z_1_51 (=> z_2_51 z_3_51)))
(assert
 (= z_1_52 (=> z_2_52 z_3_52)))
(assert
 (= z_1_53 (=> z_2_53 z_3_53)))
(assert
 (= z_1_54 (=> z_2_54 z_3_54)))
(assert
 (= z_1_55 (=> z_2_55 z_3_55)))
(assert
 (= z_1_56 (=> z_2_56 z_3_56)))
(assert
 (= z_1_57 (=> z_2_57 z_3_57)))
(assert
 (= z_1_58 (=> z_2_58 z_3_58)))
(assert
 (= z_1_59 (=> z_2_59 z_3_59)))
(assert
 (= z_1_60 (=> z_2_60 z_3_60)))
(assert
 (= z_1_61 (=> z_2_61 z_3_61)))
(assert
 (= z_1_62 (=> z_2_62 z_3_62)))
(assert
 (= z_1_63 (=> z_2_63 z_3_63)))
(assert
 (= z_1_64 (=> z_2_64 z_3_64)))
(assert
 (= z_1_65 (=> z_2_65 z_3_65)))
(assert
 (= z_1_66 (=> z_2_66 z_3_66)))
(assert
 (= z_1_67 (=> z_2_67 z_3_67)))
(assert
 (= z_1_68 (=> z_2_68 z_3_68)))
(assert
 (= z_1_69 (=> z_2_69 z_3_69)))
(assert
 (= z_1_70 (=> z_2_70 z_3_70)))
(assert
 (= z_1_71 (=> z_2_71 z_3_71)))
(assert
 (= z_1_72 (=> z_2_72 z_3_72)))
(assert
 (= z_1_73 (=> z_2_73 z_3_73)))
(assert
 (= z_1_74 (=> z_2_74 z_3_74)))
(assert
 (= z_1_75 (=> z_2_75 z_3_75)))
(assert
 (= z_1_76 (=> z_2_76 z_3_76)))
(assert
 (= z_1_77 (=> z_2_77 z_3_77)))
(assert
 (= z_1_78 (=> z_2_78 z_3_78)))
(assert
 (= z_1_79 (=> z_2_79 z_3_79)))
(assert
 (= z_1_80 (=> z_2_80 z_3_80)))
(assert
 (= z_1_81 (=> z_2_81 z_3_81)))
(assert
 (= z_1_82 (=> z_2_82 z_3_82)))
(assert
 (= z_1_83 (=> z_2_83 z_3_83)))
(assert
 (= z_1_84 (=> z_2_84 z_3_84)))
(assert
 (= z_1_85 (=> z_2_85 z_3_85)))
(assert
 (= z_1_86 (=> z_2_86 z_3_86)))
(assert
 (= z_1_87 (=> z_2_87 z_3_87)))
(assert
 (= z_1_88 (=> z_2_88 z_3_88)))
(assert
 (= z_1_89 (=> z_2_89 z_3_89)))
(assert
 (= z_1_90 (=> z_2_90 z_3_90)))
(assert
 (= z_1_91 (=> z_2_91 z_3_91)))
(assert
 (= z_1_92 (=> z_2_92 z_3_92)))
(assert
 (= z_1_93 (=> z_2_93 z_3_93)))
(assert
 (= z_1_94 (=> z_2_94 z_3_94)))
(assert
 (= z_1_95 (=> z_2_95 z_3_95)))
(assert
 (= z_1_96 (=> z_2_96 z_3_96)))
(assert
 (= z_1_97 (=> z_2_97 z_3_97)))
(assert
 (= z_1_98 (=> z_2_98 z_3_98)))
(assert
 z_2_0)
(assert
 z_2_1)
(assert
 (not z_2_2))
(assert
 (not z_2_3))
(assert
 z_2_4)
(assert
 (not z_2_5))
(assert
 z_2_6)
(assert
 (not z_2_7))
(assert
 z_2_8)
(assert
 (not z_2_9))
(assert
 (not z_2_10))
(assert
 (not z_2_11))
(assert
 z_2_12)
(assert
 (not z_2_13))
(assert
 (not z_2_14))
(assert
 z_2_15)
(assert
 (not z_2_16))
(assert
 (not z_2_17))
(assert
 z_2_18)
(assert
 z_2_19)
(assert
 z_2_20)
(assert
 z_2_21)
(assert
 (not z_2_22))
(assert
 (not z_2_23))
(assert
 z_2_24)
(assert
 (not z_2_25))
(assert
 (not z_2_26))
(assert
 (not z_2_27))
(assert
 z_2_28)
(assert
 z_2_29)
(assert
 (not z_2_30))
(assert
 z_2_31)
(assert
 z_2_32)
(assert
 (not z_2_33))
(assert
 (not z_2_34))
(assert
 (not z_2_35))
(assert
 (not z_2_36))
(assert
 z_2_37)
(assert
 (not z_2_38))
(assert
 z_2_39)
(assert
 z_2_40)
(assert
 z_2_41)
(assert
 (not z_2_42))
(assert
 (not z_2_43))
(assert
 (not z_2_44))
(assert
 (not z_2_45))
(assert
 (not z_2_46))
(assert
 z_2_47)
(assert
 (not z_2_48))
(assert
 z_2_49)
(assert
 (not z_2_50))
(assert
 (not z_2_51))
(assert
 z_2_52)
(assert
 z_2_53)
(assert
 z_2_54)
(assert
 z_2_55)
(assert
 (not z_2_56))
(assert
 z_2_57)
(assert
 z_2_58)
(assert
 (not z_2_59))
(assert
 z_2_60)
(assert
 (not z_2_61))
(assert
 (not z_2_62))
(assert
 z_2_63)
(assert
 z_2_64)
(assert
 (not z_2_65))
(assert
 z_2_66)
(assert
 (not z_2_67))
(assert
 (not z_2_68))
(assert
 (not z_2_69))
(assert
 (not z_2_70))
(assert
 (not z_2_71))
(assert
 z_2_72)
(assert
 (not z_2_73))
(assert
 z_2_74)
(assert
 z_2_75)
(assert
 (not z_2_76))
(assert
 z_2_77)
(assert
 (not z_2_78))
(assert
 z_2_79)
(assert
 z_2_80)
(assert
 (not z_2_81))
(assert
 z_2_82)
(assert
 (not z_2_83))
(assert
 (not z_2_84))
(assert
 (not z_2_85))
(assert
 z_2_86)
(assert
 z_2_87)
(assert
 (not z_2_88))
(assert
 z_2_89)
(assert
 (not z_2_90))
(assert
 z_2_91)
(assert
 (not z_2_92))
(assert
 z_2_93)
(assert
 (not z_2_94))
(assert
 (not z_2_95))
(assert
 (not z_2_96))
(assert
 (not z_2_97))
(assert
 (not z_2_98))
(assert
 z_0_0)
(assert
 z_0_3)
(assert
 z_0_6)
(assert
 z_0_13)
(assert
 z_0_16)
(assert
 z_0_17)
(assert
 z_0_23)
(assert
 z_0_25)
(assert
 z_0_28)
(assert
 z_0_34)
(assert
 (not z_0_41))
(assert
 (not z_0_46))
(assert
 (not z_0_54))
(assert
 (not z_0_61))
(assert
 (not z_0_64))
(assert
 (not z_0_70))
(assert
 (not z_0_77))
(assert
 (not z_0_83))
(assert
 (not z_0_90))
(assert
 (not z_0_96))
(check-sat)

